<?xml version = "1.0" standalone="yes"?>
<!-- This file has been generated by DOcplex version 2.23.222  -->
<CPLEXSolution version="1.0">
 <header
   problemName="CVRP"
   objectiveValue="7163.34"
  />
 <variables>
  <variable name="x_0_4" index="3" value="1.00000"/>
  <variable name="x_0_5" index="4" value="1.00000"/>
  <variable name="x_0_6" index="5" value="1.00000"/>
  <variable name="x_0_9" index="8" value="1.00000"/>
  <variable name="x_0_10" index="9" value="1.00000"/>
  <variable name="x_0_11" index="10" value="1.00000"/>
  <variable name="x_1_0" index="11" value="1.00000"/>
  <variable name="x_2_8" index="29" value="1.00000"/>
  <variable name="x_3_7" index="39" value="1.00000"/>
  <variable name="x_4_0" index="44" value="1.00000"/>
  <variable name="x_5_0" index="55" value="1.00000"/>
  <variable name="x_6_1" index="67" value="1.00000"/>
  <variable name="x_7_0" index="77" value="1.00000"/>
  <variable name="x_8_0" index="88" value="1.00000"/>
  <variable name="x_9_2" index="101" value="1.00000"/>
  <variable name="x_10_0" index="110" value="1.00000"/>
  <variable name="x_11_3" index="124" value="1.00000"/>
  <variable name="u_1" index="132" value="33.00000"/>
  <variable name="u_2" index="133" value="20.00000"/>
  <variable name="u_3" index="134" value="28.00000"/>
  <variable name="u_4" index="135" value="22.00000"/>
  <variable name="u_5" index="136" value="33.00000"/>
  <variable name="u_6" index="137" value="25.00000"/>
  <variable name="u_7" index="138" value="39.00000"/>
  <variable name="u_8" index="139" value="40.00000"/>
  <variable name="u_9" index="140" value="14.00000"/>
  <variable name="u_10" index="141" value="33.00000"/>
  <variable name="u_11" index="142" value="17.00000"/>
 </variables>
</CPLEXSolution>
